p ds 20 5
1 5
1 7
1 9
1 10
1 18
2 4
2 7
2 11
3 4
3 11
3 12
3 14
3 15
3 16
3 18
3 19
4 7
4 8
4 10
4 15
4 17
5 11
5 14
5 15
6 8
6 9
6 15
7 9
7 10
7 16
7 18
7 19
8 9
8 12
8 13
8 17
8 18
9 13
9 15
9 19
10 20
11 12
11 19
12 13
12 17
13 19
14 15
14 17
14 18
15 20
17 18
19 20
